sat
(
  (define-fun L () String
    "")
  (define-fun P () String
    "a")
  (define-fun W () String
    "")
  (define-fun T () String
    "")
  (define-fun M () String
    "ba")
  (define-fun Y () String
    "aa")
  (define-fun S () String
    "")
  (define-fun G () String
    "")
  (define-fun J () String
    "aa")
  (define-fun V () String
    "")
  (define-fun K () String
    "")
  (define-fun Z () String
    "")
  (define-fun R () String
    "abaabaab")
)
